11 20
# The example that local algorithm for ADSI is not optimal.
# ADSI should choose all nodes, while ADSL, ADSF wouldn't.
# R = [2,3,4]
1 4
2 3
2 4
3 4
4 5
6 7
6 8
6 9
6 10
6 11
7 8
7 9
7 10
7 11
8 9
8 10
8 11
9 10
9 11
10 11
